100
153
114
127
102
131
185
130
111
167
150
107
139
129
116
179
103
199
190
140
126
132
129
182
164
115
161
173
175
138
123
140
143
137
168
146
169
105
128
180
124
178
139
163
159
107
142
163
159
132
155
185
116
136
120
132
151
181
106
179
119
181
119
163
119
139
161
140
144
141
172
169
172
164
184
131
123
127
194
182
111
101
168
180
138
140
112
189
121
170
168
193
152
140
108
171
179
121
163
124
162
187
145
186
151
129
118
175
108
164
157
172
166
177
152
104
117
164
145
191
135
114
136
139
154
144
162
185
117
125
161
131
112
106
118
116
188
136
191
148
152
100
120
118
130
172
122
147
189
168
190
176
134
126
167
140
122
129
125
191
154
187
123
118
145
141
134
185
129
177
134
181
178
106
100
108
179
174
107
120
194
150
148
180
128
115
172
151
144
198
194
150
137
117
120
134
110
155
120
139
184
0
